benchmark_str_length/p2_10_4-3.dzn
Alphabet = {A,C,G,T};
ns = 10;
nc = 4;
sl = 10;
neighbours = [| I(G),I(G),I(G),I(T) | I(A),I(C),Null,Null | I(A),I(A),Null,Null | I(C),I(A),I(A),I(T) | I(A),Null,Null,Null | I(T),I(C),Null,Null | I(G),I(G),Null,Null | I(C),I(G),Null,Null | I(T),I(T),I(T),Null | I(A),Null,Null,Null |];
